&GLOBAL
  PROJECT  Open
  PRINT_LEVEL MEDIUM
  RUN_TYPE ENERGY
  &TIMINGS
     THRESHOLD 0.0001
  &END
&END GLOBAL
&FORCE_EVAL
  METHOD Quickstep
  &DFT
    BASIS_SET_FILE_NAME /scratch/hpc-prf-metdyn/metdyn02_Remi/05_Dyson_orbitals/cp2k/def2-TZVP
    BASIS_SET_FILE_NAME /scratch/hpc-prf-metdyn/metdyn02_Remi/05_Dyson_orbitals/cp2k/def2-TZVP-RIFIT
    SORT_BASIS EXP
    POTENTIAL_FILE_NAME  /pc2/groups/hpc-prf-metdyn/metdyn02_Remi/cp2k/cp2k/data/ALL_POTENTIALS 
    CHARGE 0
    &MGRID
      CUTOFF  1000
      REL_CUTOFF  100
    &END MGRID
    &POISSON
      PERIODIC NONE
      POISSON_SOLVER WAVELET
    &END POISSON
    &QS
      METHOD GAPW
      EPS_DEFAULT 1.0E-12
      EPS_PGF_ORB 1.0E-12
    &END QS
    &SCF
      SCF_GUESS ATOMIC
      EPS_SCF 1.0E-6
      MAX_SCF 500
      &PRINT
        &RESTART ON
        &END
      &END
      ADDED_MOS -1 -1
      &MIXING
          METHOD BROYDEN_MIXING
          ALPHA 0.1
          BETA 1.5
          NBROYDEN 8
      &END
      CHOLESKY OFF
    &END SCF
    &XC
      &XC_FUNCTIONAL PBE
      &END XC_FUNCTIONAL
      &WF_CORRELATION
      	&RI_RPA
	  QUADRATURE_POINTS 100
      	  &GW
	    CORR_MOS_OCC 10
	    CORR_MOS_VIRT 10
	    SELF_CONSISTENCY evGW0
          &END GW	
        &END RI_RPA
      &END WF_CORRELATION
    &END XC
    UKS
    MULTIPLICITY 3
   &PRINT
      &MO_CUBES
        WRITE_CUBE T
        NHOMO 10
        NLUMO 10
      &END MO_CUBES
    &END PRINT
  &END DFT
    &SUBSYS
    &CELL
      ABC                 30 30 30
      ALPHA_BETA_GAMMA    90 90 90
      PERIODIC NONE
    &END CELL

     &KIND C
      BASIS_SET ORB def2-TZVP
      BASIS_SET RI_AUX def2-TZVP-RIFIT
      POTENTIAL ALL
     &END KIND

     &KIND H
      BASIS_SET ORB def2-TZVP
      BASIS_SET RI_AUX def2-TZVP-RIFIT
      POTENTIAL ALL
     &END KIND

     &KIND N
      BASIS_SET ORB def2-TZVP
      BASIS_SET RI_AUX def2-TZVP-RIFIT
      POTENTIAL ALL
     &END KIND


    &TOPOLOGY
     &CENTER_COORDINATES T
     &END CENTER_COORDINATES
    &END TOPOLOGY


    &COORD
 C          -4.35600643862570     -1.69368322769384     -0.00012620084963
  C          -3.54719795719525     -0.53958596281960     -0.00014304165128
  C          -2.40656509674794     -0.09497894846643     -0.00008928808204
  C          -3.66854590440489     -2.89490292190769     -0.00001600946828
  C          -2.26068118288143     -3.07728441468414      0.00004333686425
  C          -1.23316683661786     -2.08928239617368      0.00005095608835
  C          -1.13239782857736     -0.70550122732373      0.00001816774361
  C           0.29753056219496     -0.39558051292999      0.00033851484565
  C           0.09078609450450     -2.65838968276878     -0.00000885146152
  C           1.02537168479271     -1.57691371126650     -0.00017227010339
  C          -1.53540851802208     -4.34218339910602      0.00009699045196
  C          -0.08216720504826     -4.07895253792672     -0.00000893292248
  N          -2.01960131874118     -5.55617360355469      0.00012611928160
  N           0.81412737996592     -5.03710262639305     -0.00007330859865
  C          -1.09562387298014     -6.56416006212474      0.00007921641296
  C           0.31802974751814     -6.30459692381867     -0.00002531946989
  C          -1.53573202596198     -7.90028459230502      0.00010469222906
  C          -0.62871254522055     -8.93531434679347      0.00004713064001
  C           0.75827840860117     -8.68180537670929     -0.00004054982196
  C           1.22163263949862     -7.39002646783488     -0.00007784899011
  H          -2.60253482889945     -8.08081867483947      0.00016931314056
  H          -0.98265455902351     -9.95844019717941      0.00007065870043
  H           1.45465173042915     -9.50995126986734     -0.00008439961037
  H           2.27936129000132     -7.16169403065711     -0.00015165508715
  H           0.71482203200018      0.60031803319408      0.00048124311101
  H           2.09983273804515     -1.65788341218445     -0.00037663422829
  H          -4.25705553438720     -3.80678747368717     -0.00002671221327
  H          -5.43574265421704     -1.67121003217809     -0.00020531695114
&END COORD
  &END SUBSYS
&END FORCE_EVAL
