&GLOBAL
  PROJECT  Open
  PRINT_LEVEL MEDIUM
  RUN_TYPE ENERGY
  &TIMINGS
     THRESHOLD 0.0001
  &END
&END GLOBAL
&FORCE_EVAL
  METHOD Quickstep
  &DFT
    BASIS_SET_FILE_NAME /scratch/hpc-prf-metdyn/metdyn02_Remi/05_Dyson_orbitals/cp2k/def2-TZVP
    BASIS_SET_FILE_NAME /scratch/hpc-prf-metdyn/metdyn02_Remi/05_Dyson_orbitals/cp2k/def2-TZVP-RIFIT
    SORT_BASIS EXP
    POTENTIAL_FILE_NAME  /pc2/groups/hpc-prf-metdyn/metdyn02_Remi/cp2k/cp2k/data/ALL_POTENTIALS 
    CHARGE 0
    &MGRID
      CUTOFF  1000
      REL_CUTOFF  100
    &END MGRID
    &POISSON
      PERIODIC NONE
      POISSON_SOLVER WAVELET
    &END POISSON
    &QS
      METHOD GAPW
      EPS_DEFAULT 1.0E-12
      EPS_PGF_ORB 1.0E-12
    &END QS
    &SCF
      SCF_GUESS ATOMIC
      EPS_SCF 1.0E-6
      MAX_SCF 500
      &PRINT
        &RESTART ON
        &END
      &END
      ADDED_MOS -1
      &MIXING
          METHOD BROYDEN_MIXING
          ALPHA 0.1
          BETA 1.5
          NBROYDEN 8
      &END
      CHOLESKY OFF
    &END SCF
    &XC
      &XC_FUNCTIONAL PBE
      &END XC_FUNCTIONAL
      &WF_CORRELATION
      	&RI_RPA
	  QUADRATURE_POINTS 100
      	  &GW
	    CORR_MOS_OCC 10
	    CORR_MOS_VIRT 10
	    SELF_CONSISTENCY evGW0
          &END GW	
        &END RI_RPA
      &END WF_CORRELATION
    &END XC
   &PRINT
      &MO_CUBES
        WRITE_CUBE T
        NHOMO 10
        NLUMO 10
      &END MO_CUBES
    &END PRINT
  &END DFT
    &SUBSYS
    &CELL
      ABC                 30 30 30
      ALPHA_BETA_GAMMA    90 90 90
      PERIODIC NONE
    &END CELL

     &KIND C
      BASIS_SET ORB def2-TZVP
      BASIS_SET RI_AUX def2-TZVP-RIFIT
      POTENTIAL ALL
     &END KIND

     &KIND H
      BASIS_SET ORB def2-TZVP
      BASIS_SET RI_AUX def2-TZVP-RIFIT
      POTENTIAL ALL
     &END KIND

     &KIND N
      BASIS_SET ORB def2-TZVP
      BASIS_SET RI_AUX def2-TZVP-RIFIT
      POTENTIAL ALL
     &END KIND


    &TOPOLOGY
     &CENTER_COORDINATES T
     &END CENTER_COORDINATES
    &END TOPOLOGY


    &COORD
   C          -4.32058338267540     -1.70027262940636     -0.00003649028682
  C          -3.55416906574399     -0.55603092897248     -0.00003351586464
  C          -2.39706874177144     -0.12475209741812     -0.00001722109348
  C          -3.62671468080709     -2.91498355507252      0.00000054729501
  C          -2.22907797239311     -3.06250284537309      0.00001069617446
  C          -1.20951225157318     -2.10549437805982      0.00001007552043
  C          -1.11931274107385     -0.64237862771063      0.00000446940613
  C           0.24285811407860     -0.33170470704202      0.00015434087502
  C           0.08868776305374     -2.63989152147082     -0.00004639546943
  C           0.97598581417992     -1.55150635862388     -0.00015240391306
  C          -1.49377855459858     -4.35551165151347      0.00000279531695
  C          -0.05323487473543     -4.08632906368036     -0.00000708042288
  N          -1.99782525472414     -5.54715640106924      0.00001286846741
  N           0.82989780208304     -5.04235282474533     -0.00002307498858
  C          -1.08420166150720     -6.57454561743479      0.00001106264312
  C           0.32080776266502     -6.31816650648421     -0.00001016227429
  C          -1.54671298276445     -7.90269400984622      0.00003147877264
  C          -0.65423875397515     -8.94945701204241      0.00002841033403
  C           0.73005675432163     -8.69940862650355      0.00000586647818
  C           1.20912711751496     -7.40935544286714     -0.00001425536004
  H          -2.61641997627946     -8.06691500893308      0.00004822351545
  H          -1.01559668933434     -9.96959913964524      0.00004341320751
  H           1.42325393871165     -9.53091002314203      0.00000415988355
  H           2.27018308289648     -7.19722819617189     -0.00003269027612
  H           0.67488803987164      0.65600630950043      0.00030005085625
  H           2.05455284421297     -1.61076018968776     -0.00020824326154
  H          -4.20423454649901     -3.83255309090420     -0.00001189855581
  H          -5.40298690313381     -1.69671585567969     -0.00007502697944
&END COORD
  &END SUBSYS
&END FORCE_EVAL
