&GLOBAL
  PROJECT  Open
  PRINT_LEVEL MEDIUM
  RUN_TYPE ENERGY
  &TIMINGS
     THRESHOLD 0.0001
  &END
&END GLOBAL
&FORCE_EVAL
  METHOD Quickstep
  &DFT
    BASIS_SET_FILE_NAME /scratch/hpc-prf-metdyn/metdyn02_Remi/05_Dyson_orbitals/cp2k/def2-TZVP
    BASIS_SET_FILE_NAME /scratch/hpc-prf-metdyn/metdyn02_Remi/05_Dyson_orbitals/cp2k/def2-TZVP-RIFIT
    SORT_BASIS EXP
    POTENTIAL_FILE_NAME  /pc2/groups/hpc-prf-metdyn/metdyn02_Remi/cp2k/cp2k/data/ALL_POTENTIALS 
    CHARGE 0
    &MGRID
      CUTOFF  1000
      REL_CUTOFF  100
    &END MGRID
    &POISSON
      PERIODIC NONE
      POISSON_SOLVER WAVELET
    &END POISSON
    &QS
      METHOD GAPW
      EPS_DEFAULT 1.0E-12
      EPS_PGF_ORB 1.0E-12
    &END QS
    &SCF
      SCF_GUESS ATOMIC
      EPS_SCF 1.0E-6
      MAX_SCF 500
      &PRINT
        &RESTART ON
        &END
      &END
      ADDED_MOS -1
      &MIXING
          METHOD BROYDEN_MIXING
          ALPHA 0.1
          BETA 1.5
          NBROYDEN 8
      &END
      CHOLESKY OFF
    &END SCF
    &XC
      &XC_FUNCTIONAL PBE
      &END XC_FUNCTIONAL
      &WF_CORRELATION
      	&RI_RPA
	  QUADRATURE_POINTS 100
      	  &GW
	    CORR_MOS_OCC 10
	    CORR_MOS_VIRT 10
            SC_GW0_ITER 1000
	    SELF_CONSISTENCY evGW0
          &END GW	
        &END RI_RPA
      &END WF_CORRELATION
    &END XC
    &PRINT
      &MO_CUBES
	ADD_LAST NUMERIC
        WRITE_CUBE T
	NHOMO 10
	NLUMO 10
      &END MO_CUBES
    &END PRINT
  &END DFT
    &SUBSYS
    &CELL
      ABC                 30 30 30
      ALPHA_BETA_GAMMA    90 90 90
      PERIODIC NONE
    &END CELL

     &KIND C
      BASIS_SET ORB def2-TZVP
      BASIS_SET RI_AUX def2-TZVP-RIFIT
      POTENTIAL ALL
     &END KIND

     &KIND H
      BASIS_SET ORB def2-TZVP
      BASIS_SET RI_AUX def2-TZVP-RIFIT
      POTENTIAL ALL
     &END KIND

     &KIND N
      BASIS_SET ORB def2-TZVP
      BASIS_SET RI_AUX def2-TZVP-RIFIT
      POTENTIAL ALL
     &END KIND


    &TOPOLOGY
     &CENTER_COORDINATES T
     &END CENTER_COORDINATES
    &END TOPOLOGY


    &COORD
 C          -4.27614972575167     -1.58083969178598      0.00001822073536
  C          -3.34006890121774     -0.59642309186155      0.00001503997299
  C          -1.95209289975341     -0.77068939085344      0.00000676912979
  C          -3.86185260796884     -2.94392736272931      0.00001065005535
  C          -2.51596670552749     -3.21181358062421      0.00000623639133
  C          -1.58254152652940     -2.14427229927450      0.00000483144748
  C          -0.83892784778214      0.07647829106436     -0.00000168475599
  C           0.46472460682054     -0.30536082315714     -0.00001399559771
  C          -0.23947535899211     -2.59935944760513     -0.00000420164174
  C           0.79030791123549     -1.69231744500682     -0.00001443373028
  C          -1.71655036730134     -4.44442298221887     -0.00000651139502
  C          -0.31250741305194     -4.06668538338070      0.00000469171003
  N          -2.11568394369740     -5.68234693914437     -0.00001183563790
  N           0.65387873491123     -4.93724039013274      0.00000688047812
  C          -1.11869606183526     -6.62105271625508     -0.00000742100316
  C           0.26247031315905     -6.24947395702059      0.00000267703946
  C          -1.46192358549725     -7.98773490952361     -0.00001198930042
  C          -0.48136067753017     -8.94958658406592     -0.00000602999432
  C           0.87953656244371     -8.58346297575198      0.00000322279590
  C           1.24511216691683     -7.25944884113767      0.00000744013338
  H          -2.51300180316500     -8.24481498608798     -0.00001773301038
  H          -0.75250514971373     -9.99746747489481     -0.00000699102638
  H           1.63985059572705     -9.35384511117014      0.00000581367314
  H           2.28329115122243     -6.95442830119330      0.00001506577511
  H           1.25955096770649      0.43054466592679     -0.00002193703799
  H           1.82447018281823     -2.01131878180855     -0.00002068547236
  H          -4.59632979738914     -3.73878166081995      0.00000687939327
  H          -5.33292882025696     -1.34308782948669      0.00002103087294
&END COORD
  &END SUBSYS
&END FORCE_EVAL
